17 3 1 8 2 16 4 11 14 9 6 5 0 7 18 12 13 19 10 15  
17 3 1 8 2 16 4 11 14 9 10 0 6 5 7 19 13 18 12 15  
17 3 1 8 9 16 2 4 11 6 5 14 10 0 12 7 19 13 18 15  
17 3 1 8 9 16 13 4 11 2 6 5 0 18 7 19 12 14 15 10  
17 3 1 8 2 16 4 11 9 14 6 5 0 7 13 18 12 19 10 15  
17 3 1 8 9 16 2 4 11 14 6 5 18 10 0 15 7 13 12 19  
17 3 1 8 2 16 4 9 14 0 6 5 11 15 13 7 19 12 18 10  
17 3 1 8 2 16 4 9 14 0 6 5 11 15 13 7 19 12 10 18  
17 3 1 8 9 16 2 4 14 11 10 6 0 5 18 7 12 13 19 15  
17 3 1 8 9 16 2 4 0 11 14 6 5 7 18 13 12 15 19 10  
17 3 1 8 2 16 4 9 13 11 14 6 5 0 7 12 18 19 10 15  
17 3 1 8 9 16 2 4 0 11 6 5 13 14 7 19 15 10 18 12  
17 3 1 8 2 16 4 11 6 14 15 10 0 13 7 19 9 5 12 18  
17 3 1 8 2 16 4 9 14 0 11 6 15 7 19 10 5 18 13 12  
17 3 1 8 2 16 4 11 7 14 9 18 13 6 0 5 12 19 10 15  
17 3 1 8 2 16 4 11 9 14 6 5 0 7 13 18 12 19 10 15  
17 3 4 8 9 16 1 11 14 2 6 5 0 7 18 12 13 19 10 15  
17 3 1 8 2 16 4 11 7 14 12 9 13 10 5 18 19 6 15 0  
17 3 1 8 2 16 4 11 7 14 18 9 13 6 0 5 12 19 10 15  
17 3 1 8 9 16 2 4 11 14 6 15 10 0 7 19 5 13 18 12  
17 3 1 8 2 16 4 11 7 14 9 10 0 6 5 13 18 12 19 15  
17 3 1 8 2 16 4 9 14 0 6 5 11 15 7 13 19 12 18 10  
17 3 1 8 2 16 4 11 7 14 18 9 13 6 0 5 12 19 10 15  
17 3 1 8 2 16 4 11 14 9 10 0 6 5 7 12 13 18 19 15  
17 3 1 8 2 16 4 11 14 9 6 5 0 7 18 12 13 19 10 15  
17 3 1 8 2 16 4 9 14 0 6 5 11 15 7 13 19 12 18 10  
17 3 1 8 9 16 2 4 11 14 6 15 10 0 7 19 5 18 13 12  
17 3 1 8 2 16 4 11 14 9 10 0 6 5 7 19 13 18 12 15  
17 3 1 8 9 16 2 4 11 13 6 5 18 10 0 15 7 19 12 14  
17 3 1 8 2 16 4 11 6 5 14 15 10 0 13 18 7 19 12 9  
17 3 1 8 2 16 4 11 14 9 6 0 5 15 7 19 13 18 12 10  
17 3 1 8 2 16 4 9 13 11 14 6 5 0 7 12 18 19 15 10  
17 3 1 8 2 16 4 11 9 13 14 6 15 10 0 7 19 5 12 18  
17 3 1 8 2 16 4 11 7 14 12 9 10 13 6 5 18 19 15 0  
17 3 1 8 2 16 4 11 14 9 0 6 5 15 7 19 10 13 12 18  
17 3 1 8 2 16 4 11 13 9 0 6 14 15 7 12 10 5 18 19  
17 3 1 8 9 16 2 4 11 6 14 15 10 0 13 7 19 5 18 12  
17 3 1 8 2 16 4 9 14 0 6 5 11 15 13 7 19 12 18 10  
17 3 1 8 2 16 4 9 13 11 6 5 0 18 7 12 19 14 15 10  
17 3 1 8 2 16 4 11 13 9 14 6 5 0 7 12 18 19 10 15  
17 3 1 8 2 16 4 14 11 6 15 10 0 5 18 7 19 13 9 12  
17 3 1 8 2 16 4 11 13 9 14 6 5 0 7 12 15 19 10 18  
17 3 1 8 2 16 4 11 13 9 14 6 5 0 7 12 18 19 15 10  
17 3 1 8 9 16 13 4 11 2 6 5 0 18 7 19 12 14 15 10  
17 3 1 8 2 16 4 11 6 7 14 10 12 5 18 13 19 9 15 0  
17 3 1 8 9 16 13 2 4 11 7 14 18 10 5 12 19 6 15 0  
17 3 1 8 2 16 4 11 13 9 14 6 5 0 7 12 15 19 18 10  
17 3 1 8 9 16 2 4 11 6 5 14 10 0 15 7 19 13 18 12  
17 3 1 8 2 16 4 11 6 14 15 10 0 5 18 7 12 13 19 9  
17 3 1 8 2 16 4 9 13 14 6 0 5 15 7 19 11 10 12 18  
17 3 1 8 2 16 4 14 11 13 9 0 6 5 7 18 12 19 10 15  
17 3 1 8 9 16 2 4 11 6 5 14 10 0 12 7 19 13 15 18  
17 3 1 8 9 16 4 2 18 14 6 0 5 15 7 19 13 11 12 10  
17 3 1 8 2 16 4 11 15 9 10 0 6 5 7 18 13 12 19 14  
17 3 1 8 2 16 4 11 14 9 13 6 15 10 0 5 18 7 19 12  
17 3 1 8 9 16 2 4 11 6 5 14 10 0 15 7 19 13 18 12  
17 3 1 8 9 16 4 2 14 0 6 5 11 15 7 18 12 13 19 10  
17 3 1 8 2 16 4 11 6 14 15 10 0 13 7 19 9 5 12 18  
17 3 1 8 2 16 4 9 13 11 14 6 0 5 7 12 18 19 10 15  
17 3 1 8 2 16 4 11 6 7 14 10 5 18 12 13 19 9 0 15  
17 3 1 8 2 16 4 11 14 9 0 6 5 18 7 19 10 13 12 15  
17 3 1 8 2 16 4 14 11 13 9 0 6 5 7 18 12 19 10 15  
17 3 1 8 2 16 4 11 14 9 6 5 13 7 18 12 0 19 10 15  
17 3 1 8 9 16 4 2 14 11 6 5 0 7 19 12 13 18 10 15  
